p cnf 288 1372
-1 -223 0
-1 -224 0
-1 -225 0
-2 223 0
-2 -224 0
-2 -225 0
-3 -223 0
-3 224 0
-3 -225 0
-4 223 0
-4 224 0
-4 -225 0
-5 -223 0
-5 -224 0
-5 225 0
-6 223 0
-6 -224 0
-6 225 0
-1 37 0
-1 7 0
-2 38 0
-2 8 0
-3 39 0
-3 9 0
-4 40 0
-4 10 0
-5 41 0
-5 11 0
-6 42 0
-6 12 0
-7 -226 0
-7 -227 0
-7 -228 0
-8 226 0
-8 -227 0
-8 -228 0
-9 -226 0
-9 227 0
-9 -228 0
-10 226 0
-10 227 0
-10 -228 0
-11 -226 0
-11 -227 0
-11 228 0
-12 226 0
-12 -227 0
-12 228 0
-7 1 13 0
-7 1 43 0
-7 13 43 0
-8 2 14 0
-8 2 44 0
-8 14 44 0
-9 3 15 0
-9 3 45 0
-9 15 45 0
-10 4 16 0
-10 4 46 0
-10 16 46 0
-11 5 17 0
-11 5 47 0
-11 17 47 0
-12 6 18 0
-12 6 48 0
-12 18 48 0
-7 -1 -13 -43 0
-8 -2 -14 -44 0
-9 -3 -15 -45 0
-10 -4 -16 -46 0
-11 -5 -17 -47 0
-12 -6 -18 -48 0
-13 -229 0
-13 -230 0
-13 -231 0
-14 229 0
-14 -230 0
-14 -231 0
-15 -229 0
-15 230 0
-15 -231 0
-16 229 0
-16 230 0
-16 -231 0
-17 -229 0
-17 -230 0
-17 231 0
-18 229 0
-18 -230 0
-18 231 0
-13 7 19 0
-13 7 49 0
-13 19 49 0
-14 8 20 0
-14 8 50 0
-14 20 50 0
-15 9 21 0
-15 9 51 0
-15 21 51 0
-16 10 22 0
-16 10 52 0
-16 22 52 0
-17 11 23 0
-17 11 53 0
-17 23 53 0
-18 12 24 0
-18 12 54 0
-18 24 54 0
-13 -7 -19 -49 0
-14 -8 -20 -50 0
-15 -9 -21 -51 0
-16 -10 -22 -52 0
-17 -11 -23 -53 0
-18 -12 -24 -54 0
-19 -232 0
-19 -233 0
-19 -234 0
-20 232 0
-20 -233 0
-20 -234 0
-21 -232 0
-21 233 0
-21 -234 0
-22 232 0
-22 233 0
-22 -234 0
-23 -232 0
-23 -233 0
-23 234 0
-24 232 0
-24 -233 0
-24 234 0
-19 13 25 0
-19 13 55 0
-19 25 55 0
-20 14 26 0
-20 14 56 0
-20 26 56 0
-21 15 27 0
-21 15 57 0
-21 27 57 0
-22 16 28 0
-22 16 58 0
-22 28 58 0
-23 17 29 0
-23 17 59 0
-23 29 59 0
-24 18 30 0
-24 18 60 0
-24 30 60 0
-19 -13 -25 -55 0
-20 -14 -26 -56 0
-21 -15 -27 -57 0
-22 -16 -28 -58 0
-23 -17 -29 -59 0
-24 -18 -30 -60 0
25 0
-26 0
-27 0
-28 0
-29 0
-30 0
19 31 61 0
-19 -31 0
-19 -61 0
-31 -61 0
32 0
-31 0
-33 0
-34 0
-35 0
-36 0
68 26 0
-68 -26 0
39 0
-37 0
-38 0
-40 0
-41 0
-42 0
75 45 3 0
-75 -45 0
-75 -3 0
-45 -3 0
46 0
-43 0
-44 0
-45 0
-47 0
-48 0
82 52 10 40 0
-82 -52 0
-82 -10 0
-82 -40 0
-52 -10 0
-52 -40 0
-10 -40 0
-49 -247 0
-49 -248 0
-49 -249 0
-50 247 0
-50 -248 0
-50 -249 0
-51 -247 0
-51 248 0
-51 -249 0
-52 247 0
-52 248 0
-52 -249 0
-53 -247 0
-53 -248 0
-53 249 0
-54 247 0
-54 -248 0
-54 249 0
-49 85 55 13 0
-49 85 55 43 0
-49 85 13 43 0
-49 55 13 43 0
-50 86 56 14 0
-50 86 56 44 0
-50 86 14 44 0
-50 56 14 44 0
-51 87 57 15 0
-51 87 57 45 0
-51 87 15 45 0
-51 57 15 45 0
-52 88 58 16 0
-52 88 58 46 0
-52 88 16 46 0
-52 58 16 46 0
-53 89 59 17 0
-53 89 59 47 0
-53 89 17 47 0
-53 59 17 47 0
-54 90 60 18 0
-54 90 60 48 0
-54 90 18 48 0
-54 60 18 48 0
-49 -85 -55 -13 0
-49 -85 -55 -43 0
-49 -85 -13 -43 0
-49 -55 -13 -43 0
-50 -86 -56 -14 0
-50 -86 -56 -44 0
-50 -86 -14 -44 0
-50 -56 -14 -44 0
-51 -87 -57 -15 0
-51 -87 -57 -45 0
-51 -87 -15 -45 0
-51 -57 -15 -45 0
-52 -88 -58 -16 0
-52 -88 -58 -46 0
-52 -88 -16 -46 0
-52 -58 -16 -46 0
-53 -89 -59 -17 0
-53 -89 -59 -47 0
-53 -89 -17 -47 0
-53 -59 -17 -47 0
-54 -90 -60 -18 0
-54 -90 -60 -48 0
-54 -90 -18 -48 0
-54 -60 -18 -48 0
-55 -250 0
-55 -251 0
-55 -252 0
-56 250 0
-56 -251 0
-56 -252 0
-57 -250 0
-57 251 0
-57 -252 0
-58 250 0
-58 251 0
-58 -252 0
-59 -250 0
-59 -251 0
-59 252 0
-60 250 0
-60 -251 0
-60 252 0
-55 91 61 19 0
-55 91 61 49 0
-55 91 19 49 0
-55 61 19 49 0
-56 92 62 20 0
-56 92 62 50 0
-56 92 20 50 0
-56 62 20 50 0
-57 93 63 21 0
-57 93 63 51 0
-57 93 21 51 0
-57 63 21 51 0
-58 94 64 22 0
-58 94 64 52 0
-58 94 22 52 0
-58 64 22 52 0
-59 95 65 23 0
-59 95 65 53 0
-59 95 23 53 0
-59 65 23 53 0
-60 96 66 24 0
-60 96 66 54 0
-60 96 24 54 0
-60 66 24 54 0
-55 -91 -61 -19 0
-55 -91 -61 -49 0
-55 -91 -19 -49 0
-55 -61 -19 -49 0
-56 -92 -62 -20 0
-56 -92 -62 -50 0
-56 -92 -20 -50 0
-56 -62 -20 -50 0
-57 -93 -63 -21 0
-57 -93 -63 -51 0
-57 -93 -21 -51 0
-57 -63 -21 -51 0
-58 -94 -64 -22 0
-58 -94 -64 -52 0
-58 -94 -22 -52 0
-58 -64 -22 -52 0
-59 -95 -65 -23 0
-59 -95 -65 -53 0
-59 -95 -23 -53 0
-59 -65 -23 -53 0
-60 -96 -66 -24 0
-60 -96 -66 -54 0
-60 -96 -24 -54 0
-60 -66 -24 -54 0
-61 -253 0
-61 -254 0
-61 -255 0
-62 253 0
-62 -254 0
-62 -255 0
-63 -253 0
-63 254 0
-63 -255 0
-64 253 0
-64 254 0
-64 -255 0
-65 -253 0
-65 -254 0
-65 255 0
-66 253 0
-66 -254 0
-66 255 0
-61 97 67 25 0
-61 97 67 55 0
-61 97 25 55 0
-61 67 25 55 0
-62 98 68 26 0
-62 98 68 56 0
-62 98 26 56 0
-62 68 26 56 0
-63 99 69 27 0
-63 99 69 57 0
-63 99 27 57 0
-63 69 27 57 0
-64 100 70 28 0
-64 100 70 58 0
-64 100 28 58 0
-64 70 28 58 0
-65 101 71 29 0
-65 101 71 59 0
-65 101 29 59 0
-65 71 29 59 0
-66 102 72 30 0
-66 102 72 60 0
-66 102 30 60 0
-66 72 30 60 0
-61 -97 -67 -25 0
-61 -97 -67 -55 0
-61 -97 -25 -55 0
-61 -67 -25 -55 0
-62 -98 -68 -26 0
-62 -98 -68 -56 0
-62 -98 -26 -56 0
-62 -68 -26 -56 0
-63 -99 -69 -27 0
-63 -99 -69 -57 0
-63 -99 -27 -57 0
-63 -69 -27 -57 0
-64 -100 -70 -28 0
-64 -100 -70 -58 0
-64 -100 -28 -58 0
-64 -70 -28 -58 0
-65 -101 -71 -29 0
-65 -101 -71 -59 0
-65 -101 -29 -59 0
-65 -71 -29 -59 0
-66 -102 -72 -30 0
-66 -102 -72 -60 0
-66 -102 -30 -60 0
-66 -72 -30 -60 0
-67 -256 0
-67 -257 0
-67 -258 0
-68 256 0
-68 -257 0
-68 -258 0
-69 -256 0
-69 257 0
-69 -258 0
-70 256 0
-70 257 0
-70 -258 0
-71 -256 0
-71 -257 0
-71 258 0
-72 256 0
-72 -257 0
-72 258 0
-67 103 61 0
-67 103 31 0
-67 61 31 0
-68 104 62 0
-68 104 32 0
-68 62 32 0
-69 105 63 0
-69 105 33 0
-69 63 33 0
-70 106 64 0
-70 106 34 0
-70 64 34 0
-71 107 65 0
-71 107 35 0
-71 65 35 0
-72 108 66 0
-72 108 36 0
-72 66 36 0
-67 -103 -61 -31 0
-68 -104 -62 -32 0
-69 -105 -63 -33 0
-70 -106 -64 -34 0
-71 -107 -65 -35 0
-72 -108 -66 -36 0
-73 -259 0
-73 -260 0
-73 -261 0
-74 259 0
-74 -260 0
-74 -261 0
-75 -259 0
-75 260 0
-75 -261 0
-76 259 0
-76 260 0
-76 -261 0
-77 -259 0
-77 -260 0
-77 261 0
-78 259 0
-78 -260 0
-78 261 0
-73 109 79 0
-73 109 37 0
-73 79 37 0
-74 110 80 0
-74 110 38 0
-74 80 38 0
-75 111 81 0
-75 111 39 0
-75 81 39 0
-76 112 82 0
-76 112 40 0
-76 82 40 0
-77 113 83 0
-77 113 41 0
-77 83 41 0
-78 114 84 0
-78 114 42 0
-78 84 42 0
-73 -109 -79 -37 0
-74 -110 -80 -38 0
-75 -111 -81 -39 0
-76 -112 -82 -40 0
-77 -113 -83 -41 0
-78 -114 -84 -42 0
-79 -262 0
-79 -263 0
-79 -264 0
-80 262 0
-80 -263 0
-80 -264 0
-81 -262 0
-81 263 0
-81 -264 0
-82 262 0
-82 263 0
-82 -264 0
-83 -262 0
-83 -263 0
-83 264 0
-84 262 0
-84 -263 0
-84 264 0
-79 115 85 43 0
-79 115 85 73 0
-79 115 43 73 0
-79 85 43 73 0
-80 116 86 44 0
-80 116 86 74 0
-80 116 44 74 0
-80 86 44 74 0
-81 117 87 45 0
-81 117 87 75 0
-81 117 45 75 0
-81 87 45 75 0
-82 118 88 46 0
-82 118 88 76 0
-82 118 46 76 0
-82 88 46 76 0
-83 119 89 47 0
-83 119 89 77 0
-83 119 47 77 0
-83 89 47 77 0
-84 120 90 48 0
-84 120 90 78 0
-84 120 48 78 0
-84 90 48 78 0
-79 -115 -85 -43 0
-79 -115 -85 -73 0
-79 -115 -43 -73 0
-79 -85 -43 -73 0
-80 -116 -86 -44 0
-80 -116 -86 -74 0
-80 -116 -44 -74 0
-80 -86 -44 -74 0
-81 -117 -87 -45 0
-81 -117 -87 -75 0
-81 -117 -45 -75 0
-81 -87 -45 -75 0
-82 -118 -88 -46 0
-82 -118 -88 -76 0
-82 -118 -46 -76 0
-82 -88 -46 -76 0
-83 -119 -89 -47 0
-83 -119 -89 -77 0
-83 -119 -47 -77 0
-83 -89 -47 -77 0
-84 -120 -90 -48 0
-84 -120 -90 -78 0
-84 -120 -48 -78 0
-84 -90 -48 -78 0
-85 -265 0
-85 -266 0
-85 -267 0
-86 265 0
-86 -266 0
-86 -267 0
-87 -265 0
-87 266 0
-87 -267 0
-88 265 0
-88 266 0
-88 -267 0
-89 -265 0
-89 -266 0
-89 267 0
-90 265 0
-90 -266 0
-90 267 0
-85 121 91 49 0
-85 121 91 79 0
-85 121 49 79 0
-85 91 49 79 0
-86 122 92 50 0
-86 122 92 80 0
-86 122 50 80 0
-86 92 50 80 0
-87 123 93 51 0
-87 123 93 81 0
-87 123 51 81 0
-87 93 51 81 0
-88 124 94 52 0
-88 124 94 82 0
-88 124 52 82 0
-88 94 52 82 0
-89 125 95 53 0
-89 125 95 83 0
-89 125 53 83 0
-89 95 53 83 0
-90 126 96 54 0
-90 126 96 84 0
-90 126 54 84 0
-90 96 54 84 0
-85 -121 -91 -49 0
-85 -121 -91 -79 0
-85 -121 -49 -79 0
-85 -91 -49 -79 0
-86 -122 -92 -50 0
-86 -122 -92 -80 0
-86 -122 -50 -80 0
-86 -92 -50 -80 0
-87 -123 -93 -51 0
-87 -123 -93 -81 0
-87 -123 -51 -81 0
-87 -93 -51 -81 0
-88 -124 -94 -52 0
-88 -124 -94 -82 0
-88 -124 -52 -82 0
-88 -94 -52 -82 0
-89 -125 -95 -53 0
-89 -125 -95 -83 0
-89 -125 -53 -83 0
-89 -95 -53 -83 0
-90 -126 -96 -54 0
-90 -126 -96 -84 0
-90 -126 -54 -84 0
-90 -96 -54 -84 0
-91 -268 0
-91 -269 0
-91 -270 0
-92 268 0
-92 -269 0
-92 -270 0
-93 -268 0
-93 269 0
-93 -270 0
-94 268 0
-94 269 0
-94 -270 0
-95 -268 0
-95 -269 0
-95 270 0
-96 268 0
-96 -269 0
-96 270 0
-91 127 97 55 0
-91 127 97 85 0
-91 127 55 85 0
-91 97 55 85 0
-92 128 98 56 0
-92 128 98 86 0
-92 128 56 86 0
-92 98 56 86 0
-93 129 99 57 0
-93 129 99 87 0
-93 129 57 87 0
-93 99 57 87 0
-94 130 100 58 0
-94 130 100 88 0
-94 130 58 88 0
-94 100 58 88 0
-95 131 101 59 0
-95 131 101 89 0
-95 131 59 89 0
-95 101 59 89 0
-96 132 102 60 0
-96 132 102 90 0
-96 132 60 90 0
-96 102 60 90 0
-91 -127 -97 -55 0
-91 -127 -97 -85 0
-91 -127 -55 -85 0
-91 -97 -55 -85 0
-92 -128 -98 -56 0
-92 -128 -98 -86 0
-92 -128 -56 -86 0
-92 -98 -56 -86 0
-93 -129 -99 -57 0
-93 -129 -99 -87 0
-93 -129 -57 -87 0
-93 -99 -57 -87 0
-94 -130 -100 -58 0
-94 -130 -100 -88 0
-94 -130 -58 -88 0
-94 -100 -58 -88 0
-95 -131 -101 -59 0
-95 -131 -101 -89 0
-95 -131 -59 -89 0
-95 -101 -59 -89 0
-96 -132 -102 -60 0
-96 -132 -102 -90 0
-96 -132 -60 -90 0
-96 -102 -60 -90 0
98 0
-97 0
-99 0
-100 0
-101 0
-102 0
134 104 62 92 0
-134 -104 0
-134 -62 0
-134 -92 0
-104 -62 0
-104 -92 0
-62 -92 0
107 0
-103 0
-104 0
-105 0
-106 0
-108 0
143 101 71 0
-143 -101 0
-143 -71 0
-101 -71 0
-109 -277 0
-109 -278 0
-109 -279 0
-110 277 0
-110 -278 0
-110 -279 0
-111 -277 0
-111 278 0
-111 -279 0
-112 277 0
-112 278 0
-112 -279 0
-113 -277 0
-113 -278 0
-113 279 0
-114 277 0
-114 -278 0
-114 279 0
-109 145 115 0
-109 145 73 0
-109 115 73 0
-110 146 116 0
-110 146 74 0
-110 116 74 0
-111 147 117 0
-111 147 75 0
-111 117 75 0
-112 148 118 0
-112 148 76 0
-112 118 76 0
-113 149 119 0
-113 149 77 0
-113 119 77 0
-114 150 120 0
-114 150 78 0
-114 120 78 0
-109 -145 -115 -73 0
-110 -146 -116 -74 0
-111 -147 -117 -75 0
-112 -148 -118 -76 0
-113 -149 -119 -77 0
-114 -150 -120 -78 0
117 0
-115 0
-116 0
-118 0
-119 0
-120 0
153 123 81 111 0
-153 -123 0
-153 -81 0
-153 -111 0
-123 -81 0
-123 -111 0
-81 -111 0
-121 -283 0
-121 -284 0
-121 -285 0
-122 283 0
-122 -284 0
-122 -285 0
-123 -283 0
-123 284 0
-123 -285 0
-124 283 0
-124 284 0
-124 -285 0
-125 -283 0
-125 -284 0
-125 285 0
-126 283 0
-126 -284 0
-126 285 0
-121 157 127 85 0
-121 157 127 115 0
-121 157 85 115 0
-121 127 85 115 0
-122 158 128 86 0
-122 158 128 116 0
-122 158 86 116 0
-122 128 86 116 0
-123 159 129 87 0
-123 159 129 117 0
-123 159 87 117 0
-123 129 87 117 0
-124 160 130 88 0
-124 160 130 118 0
-124 160 88 118 0
-124 130 88 118 0
-125 161 131 89 0
-125 161 131 119 0
-125 161 89 119 0
-125 131 89 119 0
-126 162 132 90 0
-126 162 132 120 0
-126 162 90 120 0
-126 132 90 120 0
-121 -157 -127 -85 0
-121 -157 -127 -115 0
-121 -157 -85 -115 0
-121 -127 -85 -115 0
-122 -158 -128 -86 0
-122 -158 -128 -116 0
-122 -158 -86 -116 0
-122 -128 -86 -116 0
-123 -159 -129 -87 0
-123 -159 -129 -117 0
-123 -159 -87 -117 0
-123 -129 -87 -117 0
-124 -160 -130 -88 0
-124 -160 -130 -118 0
-124 -160 -88 -118 0
-124 -130 -88 -118 0
-125 -161 -131 -89 0
-125 -161 -131 -119 0
-125 -161 -89 -119 0
-125 -131 -89 -119 0
-126 -162 -132 -90 0
-126 -162 -132 -120 0
-126 -162 -90 -120 0
-126 -132 -90 -120 0
-127 -286 0
-127 -287 0
-127 -288 0
-128 286 0
-128 -287 0
-128 -288 0
-129 -286 0
-129 287 0
-129 -288 0
-130 286 0
-130 287 0
-130 -288 0
-131 -286 0
-131 -287 0
-131 288 0
-132 286 0
-132 -287 0
-132 288 0
-127 163 133 91 0
-127 163 133 121 0
-127 163 91 121 0
-127 133 91 121 0
-128 164 134 92 0
-128 164 134 122 0
-128 164 92 122 0
-128 134 92 122 0
-129 165 135 93 0
-129 165 135 123 0
-129 165 93 123 0
-129 135 93 123 0
-130 166 136 94 0
-130 166 136 124 0
-130 166 94 124 0
-130 136 94 124 0
-131 167 137 95 0
-131 167 137 125 0
-131 167 95 125 0
-131 137 95 125 0
-132 168 138 96 0
-132 168 138 126 0
-132 168 96 126 0
-132 138 96 126 0
-127 -163 -133 -91 0
-127 -163 -133 -121 0
-127 -163 -91 -121 0
-127 -133 -91 -121 0
-128 -164 -134 -92 0
-128 -164 -134 -122 0
-128 -164 -92 -122 0
-128 -134 -92 -122 0
-129 -165 -135 -93 0
-129 -165 -135 -123 0
-129 -165 -93 -123 0
-129 -135 -93 -123 0
-130 -166 -136 -94 0
-130 -166 -136 -124 0
-130 -166 -94 -124 0
-130 -136 -94 -124 0
-131 -167 -137 -95 0
-131 -167 -137 -125 0
-131 -167 -95 -125 0
-131 -137 -95 -125 0
-132 -168 -138 -96 0
-132 -168 -138 -126 0
-132 -168 -96 -126 0
-132 -138 -96 -126 0
133 0
-134 0
-135 0
-136 0
-137 0
-138 0
169 139 97 127 0
-169 -139 0
-169 -97 0
-169 -127 0
-139 -97 0
-139 -127 0
-97 -127 0
-139 -292 0
-139 -293 0
-139 -294 0
-140 292 0
-140 -293 0
-140 -294 0
-141 -292 0
-141 293 0
-141 -294 0
-142 292 0
-142 293 0
-142 -294 0
-143 -292 0
-143 -293 0
-143 294 0
-144 292 0
-144 -293 0
-144 294 0
-139 175 133 0
-139 175 103 0
-139 133 103 0
-140 176 134 0
-140 176 104 0
-140 134 104 0
-141 177 135 0
-141 177 105 0
-141 135 105 0
-142 178 136 0
-142 178 106 0
-142 136 106 0
-143 179 137 0
-143 179 107 0
-143 137 107 0
-144 180 138 0
-144 180 108 0
-144 138 108 0
-139 -175 -133 -103 0
-140 -176 -134 -104 0
-141 -177 -135 -105 0
-142 -178 -136 -106 0
-143 -179 -137 -107 0
-144 -180 -138 -108 0
148 0
-145 0
-146 0
-147 0
-149 0
-150 0
184 154 112 0
-184 -154 0
-184 -112 0
-154 -112 0
156 0
-151 0
-152 0
-153 0
-154 0
-155 0
192 162 120 150 0
-192 -162 0
-192 -120 0
-192 -150 0
-162 -120 0
-162 -150 0
-120 -150 0
-157 -301 0
-157 -302 0
-157 -303 0
-158 301 0
-158 -302 0
-158 -303 0
-159 -301 0
-159 302 0
-159 -303 0
-160 301 0
-160 302 0
-160 -303 0
-161 -301 0
-161 -302 0
-161 303 0
-162 301 0
-162 -302 0
-162 303 0
-157 193 163 121 0
-157 193 163 151 0
-157 193 121 151 0
-157 163 121 151 0
-158 194 164 122 0
-158 194 164 152 0
-158 194 122 152 0
-158 164 122 152 0
-159 195 165 123 0
-159 195 165 153 0
-159 195 123 153 0
-159 165 123 153 0
-160 196 166 124 0
-160 196 166 154 0
-160 196 124 154 0
-160 166 124 154 0
-161 197 167 125 0
-161 197 167 155 0
-161 197 125 155 0
-161 167 125 155 0
-162 198 168 126 0
-162 198 168 156 0
-162 198 126 156 0
-162 168 126 156 0
-157 -193 -163 -121 0
-157 -193 -163 -151 0
-157 -193 -121 -151 0
-157 -163 -121 -151 0
-158 -194 -164 -122 0
-158 -194 -164 -152 0
-158 -194 -122 -152 0
-158 -164 -122 -152 0
-159 -195 -165 -123 0
-159 -195 -165 -153 0
-159 -195 -123 -153 0
-159 -165 -123 -153 0
-160 -196 -166 -124 0
-160 -196 -166 -154 0
-160 -196 -124 -154 0
-160 -166 -124 -154 0
-161 -197 -167 -125 0
-161 -197 -167 -155 0
-161 -197 -125 -155 0
-161 -167 -125 -155 0
-162 -198 -168 -126 0
-162 -198 -168 -156 0
-162 -198 -126 -156 0
-162 -168 -126 -156 0
-163 -304 0
-163 -305 0
-163 -306 0
-164 304 0
-164 -305 0
-164 -306 0
-165 -304 0
-165 305 0
-165 -306 0
-166 304 0
-166 305 0
-166 -306 0
-167 -304 0
-167 -305 0
-167 306 0
-168 304 0
-168 -305 0
-168 306 0
-163 199 169 127 0
-163 199 169 157 0
-163 199 127 157 0
-163 169 127 157 0
-164 200 170 128 0
-164 200 170 158 0
-164 200 128 158 0
-164 170 128 158 0
-165 201 171 129 0
-165 201 171 159 0
-165 201 129 159 0
-165 171 129 159 0
-166 202 172 130 0
-166 202 172 160 0
-166 202 130 160 0
-166 172 130 160 0
-167 203 173 131 0
-167 203 173 161 0
-167 203 131 161 0
-167 173 131 161 0
-168 204 174 132 0
-168 204 174 162 0
-168 204 132 162 0
-168 174 132 162 0
-163 -199 -169 -127 0
-163 -199 -169 -157 0
-163 -199 -127 -157 0
-163 -169 -127 -157 0
-164 -200 -170 -128 0
-164 -200 -170 -158 0
-164 -200 -128 -158 0
-164 -170 -128 -158 0
-165 -201 -171 -129 0
-165 -201 -171 -159 0
-165 -201 -129 -159 0
-165 -171 -129 -159 0
-166 -202 -172 -130 0
-166 -202 -172 -160 0
-166 -202 -130 -160 0
-166 -172 -130 -160 0
-167 -203 -173 -131 0
-167 -203 -173 -161 0
-167 -203 -131 -161 0
-167 -173 -131 -161 0
-168 -204 -174 -132 0
-168 -204 -174 -162 0
-168 -204 -132 -162 0
-168 -174 -132 -162 0
174 0
-169 0
-170 0
-171 0
-172 0
-173 0
210 180 138 168 0
-210 -180 0
-210 -138 0
-210 -168 0
-180 -138 0
-180 -168 0
-138 -168 0
-175 -310 0
-175 -311 0
-175 -312 0
-176 310 0
-176 -311 0
-176 -312 0
-177 -310 0
-177 311 0
-177 -312 0
-178 310 0
-178 311 0
-178 -312 0
-179 -310 0
-179 -311 0
-179 312 0
-180 310 0
-180 -311 0
-180 312 0
-175 211 169 0
-175 211 139 0
-175 169 139 0
-176 212 170 0
-176 212 140 0
-176 170 140 0
-177 213 171 0
-177 213 141 0
-177 171 141 0
-178 214 172 0
-178 214 142 0
-178 172 142 0
-179 215 173 0
-179 215 143 0
-179 173 143 0
-180 216 174 0
-180 216 144 0
-180 174 144 0
-175 -211 -169 -139 0
-176 -212 -170 -140 0
-177 -213 -171 -141 0
-178 -214 -172 -142 0
-179 -215 -173 -143 0
-180 -216 -174 -144 0
185 0
-181 0
-182 0
-183 0
-184 0
-186 0
149 191 0
-149 -191 0
-187 -316 0
-187 -317 0
-187 -318 0
-188 316 0
-188 -317 0
-188 -318 0
-189 -316 0
-189 317 0
-189 -318 0
-190 316 0
-190 317 0
-190 -318 0
-191 -316 0
-191 -317 0
-191 318 0
-192 316 0
-192 -317 0
-192 318 0
-187 151 193 0
-187 151 181 0
-187 193 181 0
-188 152 194 0
-188 152 182 0
-188 194 182 0
-189 153 195 0
-189 153 183 0
-189 195 183 0
-190 154 196 0
-190 154 184 0
-190 196 184 0
-191 155 197 0
-191 155 185 0
-191 197 185 0
-192 156 198 0
-192 156 186 0
-192 198 186 0
-187 -151 -193 -181 0
-188 -152 -194 -182 0
-189 -153 -195 -183 0
-190 -154 -196 -184 0
-191 -155 -197 -185 0
-192 -156 -198 -186 0
-193 -319 0
-193 -320 0
-193 -321 0
-194 319 0
-194 -320 0
-194 -321 0
-195 -319 0
-195 320 0
-195 -321 0
-196 319 0
-196 320 0
-196 -321 0
-197 -319 0
-197 -320 0
-197 321 0
-198 319 0
-198 -320 0
-198 321 0
-193 157 199 0
-193 157 187 0
-193 199 187 0
-194 158 200 0
-194 158 188 0
-194 200 188 0
-195 159 201 0
-195 159 189 0
-195 201 189 0
-196 160 202 0
-196 160 190 0
-196 202 190 0
-197 161 203 0
-197 161 191 0
-197 203 191 0
-198 162 204 0
-198 162 192 0
-198 204 192 0
-193 -157 -199 -187 0
-194 -158 -200 -188 0
-195 -159 -201 -189 0
-196 -160 -202 -190 0
-197 -161 -203 -191 0
-198 -162 -204 -192 0
-199 -322 0
-199 -323 0
-199 -324 0
-200 322 0
-200 -323 0
-200 -324 0
-201 -322 0
-201 323 0
-201 -324 0
-202 322 0
-202 323 0
-202 -324 0
-203 -322 0
-203 -323 0
-203 324 0
-204 322 0
-204 -323 0
-204 324 0
-199 163 205 0
-199 163 193 0
-199 205 193 0
-200 164 206 0
-200 164 194 0
-200 206 194 0
-201 165 207 0
-201 165 195 0
-201 207 195 0
-202 166 208 0
-202 166 196 0
-202 208 196 0
-203 167 209 0
-203 167 197 0
-203 209 197 0
-204 168 210 0
-204 168 198 0
-204 210 198 0
-199 -163 -205 -193 0
-200 -164 -206 -194 0
-201 -165 -207 -195 0
-202 -166 -208 -196 0
-203 -167 -209 -197 0
-204 -168 -210 -198 0
-205 -325 0
-205 -326 0
-205 -327 0
-206 325 0
-206 -326 0
-206 -327 0
-207 -325 0
-207 326 0
-207 -327 0
-208 325 0
-208 326 0
-208 -327 0
-209 -325 0
-209 -326 0
-209 327 0
-210 325 0
-210 -326 0
-210 327 0
-205 169 211 0
-205 169 199 0
-205 211 199 0
-206 170 212 0
-206 170 200 0
-206 212 200 0
-207 171 213 0
-207 171 201 0
-207 213 201 0
-208 172 214 0
-208 172 202 0
-208 214 202 0
-209 173 215 0
-209 173 203 0
-209 215 203 0
-210 174 216 0
-210 174 204 0
-210 216 204 0
-205 -169 -211 -199 0
-206 -170 -212 -200 0
-207 -171 -213 -201 0
-208 -172 -214 -202 0
-209 -173 -215 -203 0
-210 -174 -216 -204 0
-211 -328 0
-211 -329 0
-211 -330 0
-212 328 0
-212 -329 0
-212 -330 0
-213 -328 0
-213 329 0
-213 -330 0
-214 328 0
-214 329 0
-214 -330 0
-215 -328 0
-215 -329 0
-215 330 0
-216 328 0
-216 -329 0
-216 330 0
-211 175 0
-211 205 0
-212 176 0
-212 206 0
-213 177 0
-213 207 0
-214 178 0
-214 208 0
-215 179 0
-215 209 0
-216 180 0
-216 210 0
49 55 61 67 0
73 79 85 91 0
50 56 62 68 0
75 81 87 93 0
76 82 88 94 0
112 124 130 142 0
113 125 131 143 0
161 167 179 0
11 83 191 0
17 53 89 125 161 197 0
23 59 95 131 167 203 0
65 209 0
18 54 90 126 162 198 0
24 60 96 132 168 204 0